Instance Name : r109
Authors       : Shobb<shobb@narod.ru>
Date          : 2019-04-02
Reference     : http://shobb.narod.ru/vrppd.html
Solution
Route 1 : 95 92 98 42 15 57 87 97 37 96 13 58
Route 2 : 59 14 44 16 86 38 43 100 91 93
Route 3 : 2 72 73 21 40 53 26 54 55 25
Route 4 : 27 69 76 33 81 9 35 34 24 80
Route 5 : 31 30 51 71 65 66 20 70 1
Route 6 : 39 67 23 75 22 41 74 56 4
Route 7 : 52 88 7 18 8 84 17 60 89
Route 8 : 28 12 29 78 79 3 50 77 68
Route 9 : 83 82 19 47 36 49 46 48
Route 10 : 5 45 61 85 99 94 6
Route 11 : 62 11 64 63 90 32 10
